succeed=True
[CUDA] cuda: usage: 5.43 GB
0 :  {link #0 : 1}, {link #1 : 2}, {link #2 : 3},
1 :  {link #0 : 2}, {link #1 : 3}, {link #2 : 0},
2 :  {link #0 : 3}, {link #1 : 0}, {link #2 : 1},
3 :  {link #0 : 0}, {link #1 : 1}, {link #2 : 2},
0 :  {link #0 : 1}, {link #1 : 2}, {link #2 : 3},
1 :  {link #0 : 2}, {link #1 : 3}, {link #2 : 0},
2 :  {link #0 : 3}, {link #1 : 0}, {link #2 : 1},
3 :  {link #0 : 0}, {link #1 : 1}, {link #2 : 2},
0 :  {link #0 : 1}, {link #1 : 2}, {link #2 : 3},
1 :  {link #0 : 2}, {link #1 : 3}, {link #2 : 0},
2 :  {link #0 : 3}, {link #1 : 0}, {link #2 : 1},
3 :  {link #0 : 0}, {link #1 : 1}, {link #2 : 2},
0 : local 80, cpu 0 {link #0 : g1 0}, {link #1 : g2 0}, {link #2 : g3 0},
1 : local 80, cpu 0 {link #0 : g2 0}, {link #1 : g3 0}, {link #2 : g0 0},
2 : local 80, cpu 0 {link #0 : g3 0}, {link #1 : g0 0}, {link #2 : g1 0},
3 : local 80, cpu 0 {link #0 : g0 0}, {link #1 : g1 0}, {link #2 : g2 0},
0 : local 80, cpu 0 {link #0 : g1 0}, {link #1 : g2 0}, {link #2 : g3 0},
1 : local 80, cpu 0 {link #0 : g2 0}, {link #1 : g3 0}, {link #2 : g0 0},
2 : local 80, cpu 0 {link #0 : g3 0}, {link #1 : g0 0}, {link #2 : g1 0},
3 : local 80, cpu 0 {link #0 : g0 0}, {link #1 : g1 0}, {link #2 : g2 0},
0 : local 80, cpu 0 {link #0 : g1 0}, {link #1 : g2 0}, {link #2 : g3 0},
1 : local 80, cpu 0 {link #0 : g2 0}, {link #1 : g3 0}, {link #2 : g0 0},
2 : local 80, cpu 0 {link #0 : g3 0}, {link #1 : g0 0}, {link #2 : g1 0},
3 : local 80, cpu 0 {link #0 : g0 0}, {link #1 : g1 0}, {link #2 : g2 0},
0 :  {link #0 : 1}, {link #1 : 2}, {link #2 : 3},
1 :  {link #0 : 2}, {link #1 : 3}, {link #2 : 0},
2 :  {link #0 : 3}, {link #1 : 0}, {link #2 : 1},
3 :  {link #0 : 0}, {link #1 : 1}, {link #2 : 2},
0 : local 80, cpu 0 {link #0 : g1 0}, {link #1 : g2 0}, {link #2 : g3 0},
1 : local 80, cpu 0 {link #0 : g2 0}, {link #1 : g3 0}, {link #2 : g0 0},
2 : local 80, cpu 0 {link #0 : g3 0}, {link #1 : g0 0}, {link #2 : g1 0},
3 : local 80, cpu 0 {link #0 : g0 0}, {link #1 : g1 0}, {link #2 : g2 0},
Set parameter WLSAccessID
Set parameter WLSSecret
Set parameter LicenseID
Set parameter TimeLimit to value 200
Set parameter MIPGap to value 0.05
Set parameter LogFile to value "cppsolver.log"
Set parameter Threads to value 40
Academic license - for non-commercial use only - registered to xiaoniu.sxn@sjtu.edu.cn
Gurobi Optimizer version 9.5.1 build v9.5.1rc2 (linux64)
Thread count: 40 physical cores, 80 logical processors, using up to 40 threads
Academic license - for non-commercial use only - registered to xiaoniu.sxn@sjtu.edu.cn
Optimize a model with 55352 rows, 18093 columns and 148984 nonzeros
Model fingerprint: 0x9a6f535c
Variable types: 5 continuous, 18088 integer (18088 binary)
Coefficient statistics:
  Matrix range     [1e-03, 2e+02]
  Objective range  [1e+00, 1e+00]
  Bounds range     [1e+00, 1e+00]
  RHS range        [1e+00, 2e+02]
Found heuristic solution: objective 2.000000e+09
Presolve removed 38307 rows and 0 columns
Presolve time: 0.17s
Presolved: 17045 rows, 18093 columns, 69181 nonzeros
Found heuristic solution: objective 8465.4319122
Variable types: 5 continuous, 18088 integer (18088 binary)

Root relaxation: objective 3.770993e+02, 15804 iterations, 1.33 seconds (1.50 work units)

    Nodes    |    Current Node    |     Objective Bounds      |     Work
 Expl Unexpl |  Obj  Depth IntInf | Incumbent    BestBd   Gap | It/Node Time

     0     0  377.09929    0   47 8465.43191  377.09929  95.5%     -    1s
H    0     0                     379.1593834  377.09929  0.54%     -    2s

Explored 1 nodes (25791 simplex iterations) in 2.28 seconds (2.19 work units)
Thread count was 40 (of 80 available processors)

Solution count 3: 379.159 8465.43 2e+09 

Optimal solution found (tolerance 5.00e-02)
Best objective 3.791593834440e+02, best bound 3.770992898484e+02, gap 0.5433%
coll_cache:optimal_local_rate=0.811619,0.81187,0.812111,0.812213,
coll_cache:optimal_remote_rate=0.166552,0.166301,0.166061,0.165959,
coll_cache:optimal_cpu_rate=0.0218283,0.0218283,0.0218283,0.0218283,
z=379.159
test_result:init:feat_nbytes=56862697472
test_result:init:cache_nbytes=3468624384
test_result:init:feat_nbytes=56862697472
test_result:init:cache_nbytes=3468624384
test_result:init:feat_nbytes=56862697472
test_result:init:cache_nbytes=3468624384
test_result:init:feat_nbytes=56862697472
test_result:init:cache_nbytes=3468624384
    [Step(average) Profiler Level 1 E3 S147]
        L1  sample           0.004327 | send           0.000000
        L1  recv             0.000000 | copy           0.005036 | convert time 0.000000 | train  0.008599
        L1  feature nbytes  520.43 MB | label nbytes 0.00 Bytes
        L1  id nbytes      0.00 Bytes | graph nbytes 0.00 Bytes
        L1  miss nbytes    0.00 Bytes | remote nbytes 0.00 Bytes
        L1  num nodes               0 | num samples           0
    [Step(average) Profiler Level 2 E3 S147]
        L2  shuffle     0.000000 | core sample  0.000000 | id remap        0.000000
        L2  graph copy  0.000000 | id copy      0.000000 | cache feat copy 0.005036
        L2  last layer sample time 0.000000 | size 0.000000
    [Step(average) Profiler Level 3 E3 S147]
        L3  khop sample coo  0.000000 | khop sort coo      0.000000 | khop count edge     0.000000 | khop compact edge 0.000000
        L3  walk sample coo  0.000000 | walk topk total    0.000000 | walk topk step1     0.000000 | walk topk step2   0.000000
        L3  walk topk step3  0.000000 | walk topk step4    0.000000 | walk topk step5     0.000000
        L3  walk topk step6  0.000000 | walk topk step7    0.000000
        L3  remap unique     0.000000 | remap populate     0.000000 | remap mapnode       0.000000 | remap mapedge     0.000000
        L3  cache get_index  0.000799 | cache copy_index   0.000000 | cache extract_miss  0.000000
        L3  cache copy_miss  0.000000 | cache combine_miss 0.000000 | cache combine cache 0.004205 | cache combine remote 0.000000
        L3  label extract  0.000000
    [Profiler Level Percentiles E3 S147]
        p50.00_tail_logl2featcopy=0.005158
        p90.00_tail_logl2featcopy=0.005370
        p95.00_tail_logl2featcopy=0.005406
        p99.00_tail_logl2featcopy=0.005522
        p99.90_tail_logl2featcopy=0.009416
[CUDA] cuda: usage: 10.61 GB
Rank=3, Graph loaded.
!!!!Train_dataloader(with 37 items) enumerate latency: 1.4956250190734863
!!!!Train_data_list(with 37 items) enumerate latency: 7.62939453125e-06, transfer latency: 1.4591867923736572
presamping
presamping takes 2.0144400596618652
Rank=1, Graph loaded.
!!!!Train_dataloader(with 37 items) enumerate latency: 1.4672319889068604
!!!!Train_data_list(with 37 items) enumerate latency: 8.58306884765625e-06, transfer latency: 1.4475607872009277
presamping
presamping takes 1.7168238162994385
config:eval_tsp="2023-04-13 07:50:47"
config:num_worker=4
config:root_dir=/nvme/songxiaoniu/graph-learning/wholegraph
config:graph_name=ogbn-papers100M
config:epochs=4
config:batchsize=8000
config:skip_epoch=2
config:local_step=250
config:presc_epoch=2
config:neighbors=10,25
config:hiddensize=256
config:num_layer=2
config:model=sage
config:framework=dgl
config:dataloaderworkers=0
config:dropout=0.5
config:lr=0.003
config:use_nccl=False
config:use_amp=True
config:use_collcache=True
config:cache_percentage=0.06
config:cache_policy=coll_cache_asymm_link
config:omp_thread_num=40
config:unsupervised=False
config:classnum=172
config:global_barrier=<multiprocessing.synchronize.Barrier object at 0x7f767e99a400>
config:worker_id=0
creating_intra_node_communicator root=0, local_size=4, world_size=4
Rank=0, Graph loaded.
!!!!Train_dataloader(with 37 items) enumerate latency: 1.4556002616882324
!!!!Train_data_list(with 37 items) enumerate latency: 7.62939453125e-06, transfer latency: 1.443800687789917
epoch=4 total_steps=148
presamping
presamping takes 1.953359842300415
start training...
[Epoch 0], time=1.7690458297729492, loss=5.042880058288574
[Epoch 1], time=0.6666457653045654, loss=4.946264743804932
[Epoch 2], time=0.6697120666503906, loss=4.860404014587402
[Epoch 3], time=0.6643688678741455, loss=4.784465789794922
|===========================================================================|
|                  PyTorch CUDA memory summary, device ID 0                 |
|---------------------------------------------------------------------------|
|            CUDA OOMs: 0            |        cudaMalloc retries: 0         |
|===========================================================================|
|        Metric         | Cur Usage  | Peak Usage | Tot Alloc  | Tot Freed  |
|---------------------------------------------------------------------------|
| Allocated memory      |   76016 KB |  396287 KB |  209043 MB |  208969 MB |
|       from large pool |   69453 KB |  389949 KB |  206552 MB |  206484 MB |
|       from small pool |    6562 KB |    9206 KB |    2491 MB |    2484 MB |
|---------------------------------------------------------------------------|
| Active memory         |   76016 KB |  396287 KB |  209043 MB |  208969 MB |
|       from large pool |   69453 KB |  389949 KB |  206552 MB |  206484 MB |
|       from small pool |    6562 KB |    9206 KB |    2491 MB |    2484 MB |
|---------------------------------------------------------------------------|
| GPU reserved memory   |    1030 MB |    1030 MB |    1030 MB |       0 B  |
|       from large pool |    1018 MB |    1018 MB |    1018 MB |       0 B  |
|       from small pool |      12 MB |      12 MB |      12 MB |       0 B  |
|---------------------------------------------------------------------------|
| Non-releasable memory |   30480 KB |  475324 KB |  217228 MB |  217198 MB |
|       from large pool |   26802 KB |  471347 KB |  214596 MB |  214569 MB |
|       from small pool |    3677 KB |    6920 KB |    2632 MB |    2628 MB |
|---------------------------------------------------------------------------|
| Allocations           |      55    |      69    |   23521    |   23466    |
|       from large pool |      11    |      22    |    8534    |    8523    |
|       from small pool |      44    |      49    |   14987    |   14943    |
|---------------------------------------------------------------------------|
| Active allocs         |      55    |      69    |   23521    |   23466    |
|       from large pool |      11    |      22    |    8534    |    8523    |
|       from small pool |      44    |      49    |   14987    |   14943    |
|---------------------------------------------------------------------------|
| GPU reserved segments |      20    |      20    |      20    |       0    |
|       from large pool |      14    |      14    |      14    |       0    |
|       from small pool |       6    |       6    |       6    |       0    |
|---------------------------------------------------------------------------|
| Non-releasable allocs |      18    |      33    |    9119    |    9101    |
|       from large pool |       5    |      17    |    5043    |    5038    |
|       from small pool |      13    |      22    |    4076    |    4063    |
|---------------------------------------------------------------------------|
| Oversize allocations  |       0    |       0    |       0    |       0    |
|---------------------------------------------------------------------------|
| Oversize GPU segments |       0    |       0    |       0    |       0    |
|===========================================================================|

[TRAIN_TIME] train time is 3.770949 seconds
[EPOCH_TIME] 0.942737 seconds, maybe large due to not enough epoch skipped.
[EPOCH_TIME] 0.667188 seconds
Rank=2, Graph loaded.
!!!!Train_dataloader(with 37 items) enumerate latency: 1.4789135456085205
!!!!Train_data_list(with 37 items) enumerate latency: 8.106231689453125e-06, transfer latency: 1.4452929496765137
presamping
presamping takes 2.109678030014038

